SDVRP instances/custom_instances/p03_2_splitx10_0.vrp
NAME:p03_2_splitx10_
BEST_KNOWN: 0
COMMENT: 0
DIMENSION: 482
CAPACITY: 2000
EDGE_WEIGHT_FORMAT: FUNCTION
EDGE_WEIGHT_TYPE: EXACT_2D
NODE_COORD_SECTION
1 0.00000 0.00000
2 22 11
3 22 11
4 22 11
5 22 11
6 22 11
7 37 -1
8 37 -1
9 37 -1
10 37 -1
11 37 -1
12 -30 -4
13 -30 -4
14 -30 -4
15 -30 -4
16 -30 -4
17 -30 -4
18 -38 -2
19 -38 -2
20 -38 -2
21 -38 -2
22 42 48
23 42 48
24 42 48
25 -13 0
26 -13 0
27 -13 0
28 -13 0
29 -13 0
30 -13 0
31 -13 0
32 23 -28
33 23 -28
34 23 -28
35 38 -41
36 38 -41
37 38 -41
38 38 -41
39 38 -41
40 -25 21
41 -25 21
42 -25 21
43 -25 21
44 -25 21
45 -25 21
46 -37 -47
47 -37 -47
48 -37 -47
49 -37 -47
50 40 -22
51 40 -22
52 40 -22
53 40 -22
54 40 -22
55 40 -22
56 21 -35
57 21 -35
58 21 -35
59 21 -35
60 21 -35
61 -48 -7
62 -48 -7
63 -48 -7
64 -48 -7
65 -48 -7
66 -5 -7
67 -5 -7
68 -5 -7
69 -5 -7
70 -5 -7
71 50 -24
72 50 -24
73 50 -24
74 50 -24
75 50 -24
76 50 -24
77 50 -24
78 50 -24
79 5 -50
80 5 -50
81 5 -50
82 5 -50
83 5 -50
84 20 -9
85 20 -9
86 20 -9
87 20 -9
88 20 -9
89 20 -9
90 13 -33
91 13 -33
92 13 -33
93 -2 34
94 -2 34
95 -2 34
96 -15 -39
97 -15 -39
98 -15 -39
99 -15 -39
100 -48 -22
101 -48 -22
102 -42 -14
103 -42 -14
104 -42 -14
105 -42 -14
106 -42 -14
107 -42 -14
108 -42 -14
109 19 -2
110 19 -2
111 19 -2
112 19 -2
113 19 -2
114 19 -2
115 0 -5
116 0 -5
117 0 -5
118 0 -5
119 0 -5
120 0 -5
121 10 44
122 10 44
123 10 44
124 1 27
125 1 27
126 1 27
127 -12 42
128 -12 42
129 -12 42
130 -12 42
131 20 -50
132 20 -50
133 20 -50
134 20 -50
135 20 -50
136 -48 10
137 -48 10
138 -48 10
139 -48 10
140 -13 37
141 -13 37
142 -13 37
143 -41 -10
144 -41 -10
145 -41 -10
146 -41 -10
147 -41 -10
148 -50 -37
149 -50 -37
150 -50 -37
151 -50 -37
152 -50 -37
153 22 -16
154 22 -16
155 22 -16
156 22 -16
157 22 -16
158 22 -16
159 22 -16
160 13 -37
161 13 -37
162 13 -37
163 13 -37
164 13 -37
165 13 -37
166 7 -37
167 7 -37
168 7 -37
169 7 -37
170 -38 -41
171 -38 -41
172 -38 -41
173 -38 -41
174 38 -21
175 38 -21
176 38 -21
177 38 -21
178 38 -21
179 38 -21
180 38 -21
181 -47 -26
182 -47 -26
183 24 -3
184 24 -3
185 24 -3
186 24 -3
187 14 9
188 14 9
189 14 9
190 14 9
191 31 16
192 31 16
193 31 16
194 31 16
195 1 -15
196 1 -15
197 1 -15
198 1 -15
199 1 -15
200 1 -15
201 1 -15
202 32 -38
203 32 -38
204 32 -38
205 32 -38
206 32 -38
207 32 -38
208 21 -22
209 21 -22
210 21 -22
211 21 -22
212 43 19
213 43 19
214 43 19
215 43 19
216 43 19
217 -11 -2
218 -11 -2
219 -11 -2
220 -11 -2
221 -11 -2
222 -11 -2
223 -11 -2
224 28 35
225 28 35
226 28 35
227 28 35
228 -27 13
229 -27 13
230 -27 13
231 -27 13
232 -27 13
233 -27 13
234 -27 13
235 0 -44
236 0 -44
237 0 -44
238 0 -44
239 0 -44
240 33 -8
241 33 -8
242 33 -8
243 33 -8
244 37 18
245 37 18
246 37 18
247 37 18
248 37 18
249 21 14
250 21 14
251 21 14
252 21 14
253 38 21
254 38 21
255 38 21
256 38 21
257 38 21
258 38 21
259 38 21
260 38 21
261 -44 44
262 -44 44
263 -44 44
264 -44 44
265 -44 44
266 -44 44
267 -12 -4
268 -12 -4
269 -12 -4
270 -12 -4
271 -15 -48
272 -15 -48
273 -15 -48
274 -15 -48
275 -44 -7
276 -44 -7
277 -44 -7
278 -44 -7
279 -44 -7
280 46 -11
281 46 -11
282 46 -11
283 46 -11
284 -19 -47
285 -19 -47
286 -19 -47
287 -19 -47
288 -45 50
289 -45 50
290 -45 50
291 -45 50
292 -45 50
293 -45 50
294 -6 46
295 -6 46
296 -6 46
297 -6 46
298 -6 46
299 -6 46
300 -28 39
301 -28 39
302 -28 39
303 -28 39
304 10 7
305 10 7
306 30 -8
307 30 -8
308 30 -8
309 30 -8
310 30 -8
311 -49 -20
312 -49 -20
313 -28 24
314 -28 24
315 -28 24
316 13 19
317 13 19
318 13 19
319 13 19
320 13 19
321 13 19
322 -41 21
323 -41 21
324 -41 21
325 -41 21
326 28 -50
327 28 -50
328 28 -50
329 17 45
330 17 45
331 17 45
332 17 45
333 17 45
334 17 45
335 28 -8
336 28 -8
337 28 -8
338 28 -8
339 5 -28
340 5 -28
341 5 -28
342 5 -28
343 5 -28
344 5 -28
345 -35 27
346 -35 27
347 -35 27
348 -39 -28
349 -39 -28
350 -39 -28
351 -39 -28
352 -39 -28
353 -39 -28
354 -39 -28
355 -41 31
356 -41 31
357 -41 31
358 -41 31
359 -41 31
360 -41 31
361 -6 21
362 -6 21
363 -6 21
364 -6 21
365 -6 21
366 -6 21
367 -6 21
368 -6 21
369 44 35
370 44 35
371 -26 7
372 -26 7
373 -26 7
374 -26 7
375 -26 7
376 -26 7
377 -25 42
378 -25 42
379 -25 42
380 -25 42
381 -25 42
382 -25 42
383 -6 2
384 -6 2
385 44 38
386 44 38
387 44 38
388 44 38
389 44 38
390 44 38
391 38 12
392 38 12
393 38 12
394 38 12
395 38 12
396 38 12
397 38 12
398 -35 9
399 -35 9
400 -35 9
401 -35 9
402 -35 9
403 -41 47
404 -41 47
405 -41 47
406 -41 47
407 -28 2
408 -28 2
409 -28 2
410 -28 2
411 -28 2
412 -28 2
413 -28 2
414 -44 -47
415 -44 -47
416 -44 -47
417 -44 -47
418 9 -35
419 9 -35
420 9 -35
421 9 -35
422 19 11
423 19 11
424 19 11
425 19 11
426 19 11
427 19 11
428 19 11
429 41 35
430 41 35
431 41 35
432 41 35
433 41 35
434 41 35
435 -4 -13
436 -4 -13
437 -4 -13
438 -4 -13
439 -4 -13
440 -4 -13
441 -4 -13
442 -4 -13
443 49 -40
444 49 -40
445 49 -40
446 19 2
447 19 2
448 19 2
449 50 7
450 50 7
451 50 7
452 50 7
453 50 7
454 -11 -26
455 -11 -26
456 13 19
457 13 19
458 19 -4
459 19 -4
460 19 -4
461 19 -4
462 19 -4
463 19 -4
464 19 -4
465 -47 33
466 -47 33
467 -47 33
468 -47 33
469 47 27
470 47 27
471 -24 46
472 -24 46
473 -24 46
474 -24 46
475 -24 46
476 -24 46
477 -24 46
478 14 29
479 14 29
480 14 29
481 14 29
482 14 29
DEMAND_SECTION
1 0
2 200
3 20
4 20
5 20
6 10
7 400
8 200
9 20
10 20
11 20
12 400
13 20
14 20
15 20
16 20
17 10
18 400
19 200
20 20
21 10
22 400
23 400
24 10
25 400
26 100
27 20
28 20
29 20
30 20
31 10
32 400
33 20
34 10
35 400
36 20
37 20
38 20
39 10
40 400
41 400
42 20
43 20
44 20
45 10
46 400
47 100
48 20
49 20
50 400
51 200
52 20
53 20
54 20
55 20
56 400
57 200
58 20
59 20
60 10
61 400
62 100
63 20
64 20
65 20
66 400
67 200
68 100
69 20
70 20
71 400
72 200
73 100
74 20
75 20
76 20
77 20
78 10
79 400
80 200
81 20
82 20
83 10
84 200
85 20
86 20
87 20
88 20
89 10
90 200
91 100
92 20
93 400
94 400
95 20
96 200
97 20
98 20
99 10
100 400
101 100
102 400
103 200
104 100
105 20
106 20
107 20
108 20
109 200
110 100
111 20
112 20
113 20
114 20
115 400
116 100
117 20
118 20
119 20
120 20
121 400
122 400
123 10
124 400
125 400
126 200
127 400
128 200
129 20
130 10
131 400
132 200
133 100
134 20
135 20
136 400
137 200
138 20
139 10
140 400
141 100
142 20
143 200
144 100
145 20
146 20
147 10
148 400
149 200
150 20
151 20
152 20
153 400
154 200
155 100
156 20
157 20
158 20
159 20
160 400
161 100
162 20
163 20
164 20
165 10
166 200
167 20
168 20
169 20
170 200
171 100
172 20
173 10
174 400
175 200
176 100
177 20
178 20
179 20
180 10
181 400
182 20
183 200
184 20
185 20
186 10
187 400
188 400
189 100
190 10
191 200
192 20
193 20
194 20
195 400
196 400
197 20
198 20
199 20
200 20
201 10
202 200
203 100
204 20
205 20
206 20
207 10
208 400
209 20
210 20
211 10
212 400
213 200
214 100
215 20
216 10
217 400
218 400
219 20
220 20
221 20
222 20
223 10
224 400
225 400
226 20
227 10
228 400
229 400
230 100
231 20
232 20
233 20
234 20
235 400
236 400
237 100
238 20
239 10
240 400
241 400
242 20
243 20
244 400
245 400
246 100
247 20
248 20
249 400
250 200
251 100
252 10
253 400
254 200
255 100
256 20
257 20
258 20
259 20
260 10
261 200
262 100
263 20
264 20
265 20
266 10
267 400
268 200
269 100
270 10
271 200
272 100
273 20
274 20
275 400
276 400
277 100
278 20
279 20
280 400
281 200
282 100
283 20
284 400
285 200
286 20
287 10
288 400
289 200
290 20
291 20
292 20
293 20
294 400
295 200
296 100
297 20
298 20
299 10
300 200
301 100
302 20
303 20
304 400
305 200
306 400
307 100
308 20
309 20
310 10
311 400
312 100
313 200
314 100
315 10
316 400
317 100
318 20
319 20
320 20
321 10
322 400
323 200
324 20
325 20
326 400
327 100
328 10
329 400
330 400
331 100
332 20
333 20
334 10
335 200
336 100
337 20
338 10
339 400
340 200
341 20
342 20
343 20
344 20
345 400
346 400
347 10
348 400
349 200
350 100
351 20
352 20
353 20
354 10
355 400
356 400
357 20
358 20
359 20
360 10
361 400
362 200
363 100
364 20
365 20
366 20
367 20
368 10
369 400
370 200
371 200
372 100
373 20
374 20
375 20
376 20
377 400
378 400
379 20
380 20
381 20
382 10
383 400
384 200
385 400
386 400
387 100
388 20
389 20
390 10
391 400
392 100
393 20
394 20
395 20
396 20
397 10
398 400
399 20
400 20
401 20
402 10
403 400
404 200
405 20
406 20
407 400
408 400
409 100
410 20
411 20
412 20
413 20
414 400
415 400
416 20
417 10
418 400
419 200
420 20
421 20
422 400
423 200
424 20
425 20
426 20
427 20
428 10
429 400
430 400
431 100
432 20
433 20
434 20
435 400
436 200
437 100
438 20
439 20
440 20
441 20
442 10
443 400
444 20
445 10
446 400
447 200
448 10
449 400
450 400
451 100
452 20
453 20
454 200
455 100
456 400
457 100
458 400
459 200
460 20
461 20
462 20
463 20
464 10
465 400
466 100
467 20
468 10
469 400
470 20
471 400
472 200
473 100
474 20
475 20
476 20
477 20
478 400
479 200
480 100
481 20
482 20
DEPOT_SECTION
1
-1
EOF