SDVRP instances/custom_instances/p03_2_splitx10_0.sol
481 -4 1 5 2 3 215 213 214 211 212 452 451 450 448 449 -11 412 410 411 407 406 408 409 24 28 25 27 30 26 29 -12 13 15 16 14 275 274 277 278 276 60 64 63 61 62 142 146 145 143 144 -19 20 17 18 138 136 135 137 321 323 324 322 -21 23 22 389 385 387 384 388 386 430 432 -31 207 158 152 156 153 154 157 155 83 84 87 88 86 85 -40 345 346 344 360 366 367 362 361 363 364 365 -43 39 44 41 42 354 357 358 355 356 359 465 466 464 467 -57 56 59 58 55 206 204 203 201 205 202 36 34 37 35 38 442 443 444 -66 67 65 440 435 437 438 436 434 439 441 117 114 116 119 118 -68 69 45 46 48 47 415 414 413 416 172 169 171 170 -75 73 71 76 70 77 72 74 50 53 54 51 49 52 173 -90 163 161 160 164 162 159 133 132 134 130 131 325 326 327 33 32 209 208 210 -91 89 420 419 417 418 341 339 338 342 196 195 200 197 -94 93 92 124 125 123 -99 100 311 310 106 103 105 104 102 107 101 267 -115 238 237 234 236 235 79 78 82 81 80 165 167 166 168 340 343 -121 120 122 333 330 332 328 329 331 478 480 481 -140 141 139 126 127 129 128 297 294 293 296 295 298 -177 175 174 178 179 176 279 282 281 280 10 8 7 6 9 184 182 183 185 -181 180 149 150 151 148 147 350 351 349 348 347 353 352 -187 189 186 188 318 316 319 317 455 456 320 315 -190 193 191 192 243 245 247 244 246 394 390 396 395 393 392 391 -199 198 194 271 273 272 270 286 283 284 285 95 96 98 97 454 453 -229 231 232 233 230 228 227 398 401 399 400 397 375 373 374 371 370 372 -241 239 240 242 306 309 307 308 305 334 336 335 337 -253 257 259 252 255 224 223 225 226 477 479 -256 254 258 469 468 369 368 431 428 433 429 -268 269 266 221 216 222 219 218 220 217 383 382 -302 300 301 299 381 380 378 377 379 376 470 474 475 473 471 476 472 -304 303 251 249 250 248 421 423 422 424 426 425 427 -313 312 314 263 261 265 260 264 262 287 290 291 289 288 292 405 403 404 402 -445 447 446 112 113 109 110 111 108 463 460 457 458 459 462 461 0 





OBJ=
3105.194
BEST_KNOWN=
0.000